p tw 40 99
e 0 5
e 0 8
e 0 11
e 0 30
e 0 38
e 1 3
e 1 12
e 1 13
e 1 15
e 1 16
e 1 22
e 1 27
e 1 39
e 2 7
e 2 15
e 2 22
e 2 26
e 3 8
e 3 14
e 3 15
e 3 24
e 3 27
e 3 38
e 3 39
e 4 8
e 4 11
e 4 21
e 4 28
e 4 39
e 5 14
e 5 19
e 5 23
e 5 27
e 5 31
e 6 26
e 6 29
e 6 34
e 7 13
e 8 15
e 8 22
e 8 26
e 8 27
e 8 29
e 8 32
e 9 19
e 9 21
e 9 38
e 10 13
e 10 27
e 10 36
e 11 20
e 11 28
e 11 33
e 12 26
e 12 33
e 12 35
e 13 14
e 13 27
e 13 30
e 13 31
e 13 37
e 14 16
e 14 26
e 15 17
e 15 26
e 15 34
e 15 36
e 17 19
e 17 23
e 17 33
e 17 36
e 18 20
e 19 22
e 19 27
e 19 32
e 19 38
e 20 22
e 20 24
e 21 26
e 22 23
e 22 24
e 22 36
e 23 31
e 24 34
e 25 30
e 25 32
e 25 33
e 25 35
e 25 39
e 26 37
e 26 39
e 27 38
e 29 30
e 31 37
e 33 38
e 33 39
e 34 35
e 34 38
e 38 39
